p tw 1440 21601 7 
1 8 
1 161 
2 9 
2 10 
2 162 
3 7 
3 10 
3 191 
4 8 
4 9 
4 192 
5 7 
5 9 
5 871 
6 8 
6 10 
6 872 
11 17 
11 18 
11 81 
12 19 
12 20 
12 82 
13 17 
13 20 
13 111 
14 18 
14 19 
14 112 
15 17 
15 19 
15 1191 
16 18 
16 20 
16 1192 
21 27 
21 28 
21 921 
22 29 
22 30 
22 922 
23 27 
23 30 
23 1131 
24 28 
24 29 
24 1132 
25 27 
25 29 
25 1301 
26 28 
26 30 
26 1302 
31 37 
31 38 
31 831 
32 39 
32 40 
32 832 
33 37 
33 40 
33 873 
34 38 
34 39 
34 874 
35 37 
35 39 
35 1291 
36 38 
36 40 
36 1292 
41 47 
41 48 
41 361 
42 49 
42 50 
42 362 
43 47 
43 50 
43 481 
44 48 
44 49 
44 482 
45 47 
45 49 
45 1041 
46 48 
46 50 
46 1042 
51 57 
51 58 
51 641 
52 59 
52 60 
52 642 
53 57 
53 60 
53 761 
54 58 
54 59 
54 762 
55 57 
55 59 
55 1321 
56 58 
56 60 
56 1322 
61 67 
61 68 
61 71 
62 69 
62 70 
62 72 
63 67 
63 70 
63 371 
64 68 
64 69 
64 372 
65 67 
65 69 
65 601 
66 68 
66 70 
66 602 
71 77 
71 78 
72 79 
72 80 
73 77 
73 80 
73 83 
74 78 
74 79 
74 84 
75 77 
75 79 
75 1101 
76 78 
76 80 
76 1102 
81 87 
81 88 
82 89 
82 90 
83 87 
83 90 
84 88 
84 89 
85 87 
85 89 
85 701 
86 88 
86 90 
86 702 
91 97 
91 98 
91 923 
92 99 
92 100 
92 924 
93 97 
93 100 
93 1001 
94 98 
94 99 
94 1002 
95 97 
95 99 
95 1231 
96 98 
96 100 
96 1232 
101 107 
101 108 
101 193 
102 109 
102 110 
102 194 
103 107 
103 110 
103 441 
104 108 
104 109 
104 442 
105 107 
105 109 
105 631 
106 108 
106 110 
106 632 
111 117 
111 118 
112 119 
112 120 
113 117 
113 120 
113 971 
114 118 
114 119 
114 972 
115 117 
115 119 
115 1411 
116 118 
116 120 
116 1412 
121 127 
121 128 
121 231 
122 129 
122 130 
122 232 
123 127 
123 130 
123 1031 
124 128 
124 129 
124 1032 
125 127 
125 129 
125 1081 
126 128 
126 130 
126 1082 
131 137 
131 138 
131 741 
132 139 
132 140 
132 742 
133 137 
133 140 
133 811 
134 138 
134 139 
134 812 
135 137 
135 139 
135 991 
136 138 
136 140 
136 992 
141 147 
141 148 
141 801 
142 149 
142 150 
142 802 
143 147 
143 150 
143 931 
144 148 
144 149 
144 932 
145 147 
145 149 
145 1401 
146 148 
146 150 
146 1402 
151 157 
151 158 
151 443 
152 159 
152 160 
152 444 
153 157 
153 160 
153 501 
154 158 
154 159 
154 502 
155 157 
155 159 
155 561 
156 158 
156 160 
156 562 
161 167 
161 168 
162 169 
162 170 
163 167 
163 170 
163 973 
164 168 
164 169 
164 974 
165 167 
165 169 
165 1303 
166 168 
166 170 
166 1304 
171 177 
171 178 
171 331 
172 179 
172 180 
172 332 
173 177 
173 180 
173 391 
174 178 
174 179 
174 392 
175 177 
175 179 
175 691 
176 178 
176 180 
176 692 
181 187 
181 188 
181 483 
182 189 
182 190 
182 484 
183 187 
183 190 
183 763 
184 188 
184 189 
184 764 
185 187 
185 189 
185 891 
186 188 
186 190 
186 892 
191 197 
191 198 
192 199 
192 200 
193 197 
193 200 
194 198 
194 199 
195 197 
195 199 
195 271 
196 198 
196 200 
196 272 
201 207 
201 208 
201 563 
202 209 
202 210 
202 564 
203 207 
203 210 
203 711 
204 208 
204 209 
204 712 
205 207 
205 209 
205 1251 
206 208 
206 210 
206 1252 
211 217 
211 218 
211 581 
212 219 
212 220 
212 582 
213 217 
213 220 
213 1021 
214 218 
214 219 
214 1022 
215 217 
215 219 
215 1381 
216 218 
216 220 
216 1382 
221 227 
221 228 
221 281 
222 229 
222 230 
222 282 
223 227 
223 230 
223 321 
224 228 
224 229 
224 322 
225 227 
225 229 
225 1023 
226 228 
226 230 
226 1024 
231 237 
231 238 
232 239 
232 240 
233 237 
233 240 
233 341 
234 238 
234 239 
234 342 
235 237 
235 239 
235 821 
236 238 
236 240 
236 822 
241 247 
241 248 
241 661 
242 249 
242 250 
242 662 
243 247 
243 250 
243 823 
244 248 
244 249 
244 824 
245 247 
245 249 
245 925 
246 248 
246 250 
246 926 
251 257 
251 258 
251 351 
252 259 
252 260 
252 352 
253 257 
253 260 
253 541 
254 258 
254 259 
254 542 
255 257 
255 259 
255 1311 
256 258 
256 260 
256 1312 
261 267 
261 268 
261 583 
262 269 
262 270 
262 584 
263 267 
263 270 
263 993 
264 268 
264 269 
264 994 
265 267 
265 269 
265 1331 
266 268 
266 270 
266 1332 
271 277 
271 278 
272 279 
272 280 
273 277 
273 280 
273 363 
274 278 
274 279 
274 364 
275 277 
275 279 
275 1341 
276 278 
276 280 
276 1342 
281 287 
281 288 
282 289 
282 290 
283 287 
283 290 
283 411 
284 288 
284 289 
284 412 
285 287 
285 289 
285 1271 
286 288 
286 290 
286 1272 
291 297 
291 298 
291 301 
292 299 
292 300 
292 302 
293 297 
293 300 
293 451 
294 298 
294 299 
294 452 
295 297 
295 299 
295 571 
296 298 
296 300 
296 572 
301 307 
301 308 
302 309 
302 310 
303 307 
303 310 
303 485 
304 308 
304 309 
304 486 
305 307 
305 309 
305 1253 
306 308 
306 310 
306 1254 
311 317 
311 318 
311 511 
312 319 
312 320 
312 512 
313 317 
313 320 
313 671 
314 318 
314 319 
314 672 
315 317 
315 319 
315 951 
316 318 
316 320 
316 952 
321 327 
321 328 
322 329 
322 330 
323 327 
323 330 
323 431 
324 328 
324 329 
324 432 
325 327 
325 329 
325 1103 
326 328 
326 330 
326 1104 
331 337 
331 338 
332 339 
332 340 
333 337 
333 340 
333 393 
334 338 
334 339 
334 394 
335 337 
335 339 
335 651 
336 338 
336 340 
336 652 
341 347 
341 348 
342 349 
342 350 
343 347 
343 350 
343 1061 
344 348 
344 349 
344 1062 
345 347 
345 349 
345 1383 
346 348 
346 350 
346 1384 
351 357 
351 358 
352 359 
352 360 
353 357 
353 360 
353 551 
354 358 
354 359 
354 552 
355 357 
355 359 
355 1391 
356 358 
356 360 
356 1392 
361 367 
361 368 
362 369 
362 370 
363 367 
363 370 
364 368 
364 369 
365 367 
365 369 
365 941 
366 368 
366 370 
366 942 
371 377 
371 378 
372 379 
372 380 
373 377 
373 380 
373 461 
374 378 
374 379 
374 462 
375 377 
375 379 
375 1121 
376 378 
376 380 
376 1122 
381 387 
381 388 
381 401 
382 389 
382 390 
382 402 
383 387 
383 390 
383 751 
384 388 
384 389 
384 752 
385 387 
385 389 
385 1083 
386 388 
386 390 
386 1084 
391 397 
391 398 
392 399 
392 400 
393 397 
393 400 
394 398 
394 399 
395 397 
395 399 
395 1361 
396 398 
396 400 
396 1362 
401 407 
401 408 
402 409 
402 410 
403 407 
403 410 
403 513 
404 408 
404 409 
404 514 
405 407 
405 409 
405 861 
406 408 
406 410 
406 862 
411 417 
411 418 
412 419 
412 420 
413 417 
413 420 
413 531 
414 418 
414 419 
414 532 
415 417 
415 419 
415 703 
416 418 
416 420 
416 704 
421 427 
421 428 
421 721 
422 429 
422 430 
422 722 
423 427 
423 430 
423 893 
424 428 
424 429 
424 894 
425 427 
425 429 
425 1161 
426 428 
426 430 
426 1162 
431 437 
431 438 
432 439 
432 440 
433 437 
433 440 
433 723 
434 438 
434 439 
434 724 
435 437 
435 439 
435 1371 
436 438 
436 440 
436 1372 
441 447 
441 448 
442 449 
442 450 
443 447 
443 450 
444 448 
444 449 
445 447 
445 449 
445 933 
446 448 
446 450 
446 934 
451 457 
451 458 
452 459 
452 460 
453 457 
453 460 
453 1233 
454 458 
454 459 
454 1234 
455 457 
455 459 
455 1385 
456 458 
456 460 
456 1386 
461 467 
461 468 
462 469 
462 470 
463 467 
463 470 
463 743 
464 468 
464 469 
464 744 
465 467 
465 469 
465 1351 
466 468 
466 470 
466 1352 
471 477 
471 478 
471 771 
472 479 
472 480 
472 772 
473 477 
473 480 
473 1221 
474 478 
474 479 
474 1222 
475 477 
475 479 
475 1373 
476 478 
476 480 
476 1374 
481 487 
481 488 
482 489 
482 490 
483 487 
483 490 
484 488 
484 489 
485 487 
485 489 
486 488 
486 490 
491 497 
491 498 
491 681 
492 499 
492 500 
492 682 
493 497 
493 500 
493 895 
494 498 
494 499 
494 896 
495 497 
495 499 
495 943 
496 498 
496 500 
496 944 
501 507 
501 508 
502 509 
502 510 
503 507 
503 510 
503 611 
504 508 
504 509 
504 612 
505 507 
505 509 
505 673 
506 508 
506 510 
506 674 
511 517 
511 518 
512 519 
512 520 
513 517 
513 520 
514 518 
514 519 
515 517 
515 519 
515 1201 
516 518 
516 520 
516 1202 
521 527 
521 528 
521 713 
522 529 
522 530 
522 714 
523 527 
523 530 
523 851 
524 528 
524 529 
524 852 
525 527 
525 529 
525 1293 
526 528 
526 530 
526 1294 
531 537 
531 538 
532 539 
532 540 
533 537 
533 540 
533 961 
534 538 
534 539 
534 962 
535 537 
535 539 
535 1043 
536 538 
536 540 
536 1044 
541 547 
541 548 
542 549 
542 550 
543 547 
543 550 
543 585 
544 548 
544 549 
544 586 
545 547 
545 549 
545 853 
546 548 
546 550 
546 854 
551 557 
551 558 
552 559 
552 560 
553 557 
553 560 
553 981 
554 558 
554 559 
554 982 
555 557 
555 559 
555 1171 
556 558 
556 560 
556 1172 
561 567 
561 568 
562 569 
562 570 
563 567 
563 570 
564 568 
564 569 
565 567 
565 569 
565 1033 
566 568 
566 570 
566 1034 
571 577 
571 578 
572 579 
572 580 
573 577 
573 580 
573 901 
574 578 
574 579 
574 902 
575 577 
575 579 
575 1141 
576 578 
576 580 
576 1142 
581 587 
581 588 
582 589 
582 590 
583 587 
583 590 
584 588 
584 589 
585 587 
585 589 
586 588 
586 590 
591 597 
591 598 
591 683 
592 599 
592 600 
592 684 
593 597 
593 600 
593 841 
594 598 
594 599 
594 842 
595 597 
595 599 
595 1111 
596 598 
596 600 
596 1112 
601 607 
601 608 
602 609 
602 610 
603 607 
603 610 
603 791 
604 608 
604 609 
604 792 
605 607 
605 609 
605 825 
606 608 
606 610 
606 826 
611 617 
611 618 
612 619 
612 620 
613 617 
613 620 
613 833 
614 618 
614 619 
614 834 
615 617 
615 619 
615 1173 
616 618 
616 620 
616 1174 
621 627 
621 628 
621 881 
622 629 
622 630 
622 882 
623 627 
623 630 
623 1011 
624 628 
624 629 
624 1012 
625 627 
625 629 
625 1241 
626 628 
626 630 
626 1242 
631 637 
631 638 
632 639 
632 640 
633 637 
633 640 
633 975 
634 638 
634 639 
634 976 
635 637 
635 639 
635 1003 
636 638 
636 640 
636 1004 
641 647 
641 648 
642 649 
642 650 
643 647 
643 650 
643 813 
644 648 
644 649 
644 814 
645 647 
645 649 
645 1025 
646 648 
646 650 
646 1026 
651 657 
651 658 
652 659 
652 660 
653 657 
653 660 
653 685 
654 658 
654 659 
654 686 
655 657 
655 659 
655 1063 
656 658 
656 660 
656 1064 
661 667 
661 668 
662 669 
662 670 
663 667 
663 670 
663 1261 
664 668 
664 669 
664 1262 
665 667 
665 669 
665 1421 
666 668 
666 670 
666 1422 
671 677 
671 678 
672 679 
672 680 
673 677 
673 680 
674 678 
674 679 
675 677 
675 679 
675 1393 
676 678 
676 680 
676 1394 
681 687 
681 688 
682 689 
682 690 
683 687 
683 690 
684 688 
684 689 
685 687 
685 689 
686 688 
686 690 
691 697 
691 698 
692 699 
692 700 
693 697 
693 700 
693 1163 
694 698 
694 699 
694 1164 
695 697 
695 699 
695 1175 
696 698 
696 700 
696 1176 
701 707 
701 708 
702 709 
702 710 
703 707 
703 710 
704 708 
704 709 
705 707 
705 709 
705 1045 
706 708 
706 710 
706 1046 
711 717 
711 718 
712 719 
712 720 
713 717 
713 720 
714 718 
714 719 
715 717 
715 719 
715 1313 
716 718 
716 720 
716 1314 
721 727 
721 728 
722 729 
722 730 
723 727 
723 730 
724 728 
724 729 
725 727 
725 729 
725 1403 
726 728 
726 730 
726 1404 
731 737 
731 738 
731 935 
732 739 
732 740 
732 936 
733 737 
733 740 
733 1151 
734 738 
734 739 
734 1152 
735 737 
735 739 
735 1413 
736 738 
736 740 
736 1414 
741 747 
741 748 
742 749 
742 750 
743 747 
743 750 
744 748 
744 749 
745 747 
745 749 
745 1013 
746 748 
746 750 
746 1014 
751 757 
751 758 
752 759 
752 760 
753 757 
753 760 
753 1123 
754 758 
754 759 
754 1124 
755 757 
755 759 
755 1203 
756 758 
756 760 
756 1204 
761 767 
761 768 
762 769 
762 770 
763 767 
763 770 
764 768 
764 769 
765 767 
765 769 
765 863 
766 768 
766 770 
766 864 
771 777 
771 778 
772 779 
772 780 
773 777 
773 780 
773 1035 
774 778 
774 779 
774 1036 
775 777 
775 779 
775 1281 
776 778 
776 780 
776 1282 
781 787 
781 788 
781 1015 
782 789 
782 790 
782 1016 
783 787 
783 790 
783 1211 
784 788 
784 789 
784 1212 
785 787 
785 789 
785 1353 
786 788 
786 790 
786 1354 
791 797 
791 798 
792 799 
792 800 
793 797 
793 800 
793 803 
794 798 
794 799 
794 804 
795 797 
795 799 
795 1193 
796 798 
796 800 
796 1194 
801 807 
801 808 
802 809 
802 810 
803 807 
803 810 
804 808 
804 809 
805 807 
805 809 
805 1263 
806 808 
806 810 
806 1264 
811 817 
811 818 
812 819 
812 820 
813 817 
813 820 
814 818 
814 819 
815 817 
815 819 
815 1375 
816 818 
816 820 
816 1376 
821 827 
821 828 
822 829 
822 830 
823 827 
823 830 
824 828 
824 829 
825 827 
825 829 
826 828 
826 830 
831 837 
831 838 
832 839 
832 840 
833 837 
833 840 
834 838 
834 839 
835 837 
835 839 
835 1405 
836 838 
836 840 
836 1406 
841 847 
841 848 
842 849 
842 850 
843 847 
843 850 
843 1071 
844 848 
844 849 
844 1072 
845 847 
845 849 
845 1235 
846 848 
846 850 
846 1236 
851 857 
851 858 
852 859 
852 860 
853 857 
853 860 
854 858 
854 859 
855 857 
855 859 
855 1205 
856 858 
856 860 
856 1206 
861 867 
861 868 
862 869 
862 870 
863 867 
863 870 
864 868 
864 869 
865 867 
865 869 
865 1065 
866 868 
866 870 
866 1066 
871 877 
871 878 
872 879 
872 880 
873 877 
873 880 
874 878 
874 879 
875 877 
875 879 
875 1333 
876 878 
876 880 
876 1334 
881 887 
881 888 
882 889 
882 890 
883 887 
883 890 
883 1091 
884 888 
884 889 
884 1092 
885 887 
885 889 
885 1153 
886 888 
886 890 
886 1154 
891 897 
891 898 
892 899 
892 900 
893 897 
893 900 
894 898 
894 899 
895 897 
895 899 
896 898 
896 900 
901 907 
901 908 
902 909 
902 910 
903 907 
903 910 
903 911 
904 908 
904 909 
904 912 
905 907 
905 909 
905 1133 
906 908 
906 910 
906 1134 
911 917 
911 918 
912 919 
912 920 
913 917 
913 920 
913 963 
914 918 
914 919 
914 964 
915 917 
915 919 
915 1363 
916 918 
916 920 
916 1364 
921 927 
921 928 
922 929 
922 930 
923 927 
923 930 
924 928 
924 929 
925 927 
925 929 
926 928 
926 930 
931 937 
931 938 
932 939 
932 940 
933 937 
933 940 
934 938 
934 939 
935 937 
935 939 
936 938 
936 940 
941 947 
941 948 
942 949 
942 950 
943 947 
943 950 
944 948 
944 949 
945 947 
945 949 
945 1223 
946 948 
946 950 
946 1224 
951 957 
951 958 
952 959 
952 960 
953 957 
953 960 
953 1135 
954 958 
954 959 
954 1136 
955 957 
955 959 
955 1255 
956 958 
956 960 
956 1256 
961 967 
961 968 
962 969 
962 970 
963 967 
963 970 
964 968 
964 969 
965 967 
965 969 
965 1181 
966 968 
966 970 
966 1182 
971 977 
971 978 
972 979 
972 980 
973 977 
973 980 
974 978 
974 979 
975 977 
975 979 
976 978 
976 980 
981 987 
981 988 
982 989 
982 990 
983 987 
983 990 
983 1093 
984 988 
984 989 
984 1094 
985 987 
985 989 
985 1113 
986 988 
986 990 
986 1114 
991 997 
991 998 
992 999 
992 1000 
993 997 
993 1000 
994 998 
994 999 
995 997 
995 999 
995 1115 
996 998 
996 1000 
996 1116 
1001 1007 
1001 1008 
1002 1009 
1002 1010 
1003 1007 
1003 1010 
1004 1008 
1004 1009 
1005 1007 
1005 1009 
1005 1195 
1006 1008 
1006 1010 
1006 1196 
1011 1017 
1011 1018 
1012 1019 
1012 1020 
1013 1017 
1013 1020 
1014 1018 
1014 1019 
1015 1017 
1015 1019 
1016 1018 
1016 1020 
1021 1027 
1021 1028 
1022 1029 
1022 1030 
1023 1027 
1023 1030 
1024 1028 
1024 1029 
1025 1027 
1025 1029 
1026 1028 
1026 1030 
1031 1037 
1031 1038 
1032 1039 
1032 1040 
1033 1037 
1033 1040 
1034 1038 
1034 1039 
1035 1037 
1035 1039 
1036 1038 
1036 1040 
1041 1047 
1041 1048 
1042 1049 
1042 1050 
1043 1047 
1043 1050 
1044 1048 
1044 1049 
1045 1047 
1045 1049 
1046 1048 
1046 1050 
1051 1057 
1051 1058 
1051 1155 
1052 1059 
1052 1060 
1052 1156 
1053 1057 
1053 1060 
1053 1165 
1054 1058 
1054 1059 
1054 1166 
1055 1057 
1055 1059 
1055 1355 
1056 1058 
1056 1060 
1056 1356 
1061 1067 
1061 1068 
1062 1069 
1062 1070 
1063 1067 
1063 1070 
1064 1068 
1064 1069 
1065 1067 
1065 1069 
1066 1068 
1066 1070 
1071 1077 
1071 1078 
1072 1079 
1072 1080 
1073 1077 
1073 1080 
1073 1125 
1074 1078 
1074 1079 
1074 1126 
1075 1077 
1075 1079 
1075 1415 
1076 1078 
1076 1080 
1076 1416 
1081 1087 
1081 1088 
1082 1089 
1082 1090 
1083 1087 
1083 1090 
1084 1088 
1084 1089 
1085 1087 
1085 1089 
1085 1273 
1086 1088 
1086 1090 
1086 1274 
1091 1097 
1091 1098 
1092 1099 
1092 1100 
1093 1097 
1093 1100 
1094 1098 
1094 1099 
1095 1097 
1095 1099 
1095 1335 
1096 1098 
1096 1100 
1096 1336 
1101 1107 
1101 1108 
1102 1109 
1102 1110 
1103 1107 
1103 1110 
1104 1108 
1104 1109 
1105 1107 
1105 1109 
1105 1143 
1106 1108 
1106 1110 
1106 1144 
1111 1117 
1111 1118 
1112 1119 
1112 1120 
1113 1117 
1113 1120 
1114 1118 
1114 1119 
1115 1117 
1115 1119 
1116 1118 
1116 1120 
1121 1127 
1121 1128 
1122 1129 
1122 1130 
1123 1127 
1123 1130 
1124 1128 
1124 1129 
1125 1127 
1125 1129 
1126 1128 
1126 1130 
1131 1137 
1131 1138 
1132 1139 
1132 1140 
1133 1137 
1133 1140 
1134 1138 
1134 1139 
1135 1137 
1135 1139 
1136 1138 
1136 1140 
1141 1147 
1141 1148 
1142 1149 
1142 1150 
1143 1147 
1143 1150 
1144 1148 
1144 1149 
1145 1147 
1145 1149 
1145 1283 
1146 1148 
1146 1150 
1146 1284 
1151 1157 
1151 1158 
1152 1159 
1152 1160 
1153 1157 
1153 1160 
1154 1158 
1154 1159 
1155 1157 
1155 1159 
1156 1158 
1156 1160 
1161 1167 
1161 1168 
1162 1169 
1162 1170 
1163 1167 
1163 1170 
1164 1168 
1164 1169 
1165 1167 
1165 1169 
1166 1168 
1166 1170 
1171 1177 
1171 1178 
1172 1179 
1172 1180 
1173 1177 
1173 1180 
1174 1178 
1174 1179 
1175 1177 
1175 1179 
1176 1178 
1176 1180 
1181 1187 
1181 1188 
1182 1189 
1182 1190 
1183 1187 
1183 1190 
1183 1323 
1184 1188 
1184 1189 
1184 1324 
1185 1187 
1185 1189 
1185 1423 
1186 1188 
1186 1190 
1186 1424 
1191 1197 
1191 1198 
1192 1199 
1192 1200 
1193 1197 
1193 1200 
1194 1198 
1194 1199 
1195 1197 
1195 1199 
1196 1198 
1196 1200 
1201 1207 
1201 1208 
1202 1209 
1202 1210 
1203 1207 
1203 1210 
1204 1208 
1204 1209 
1205 1207 
1205 1209 
1206 1208 
1206 1210 
1211 1217 
1211 1218 
1212 1219 
1212 1220 
1213 1217 
1213 1220 
1213 1225 
1214 1218 
1214 1219 
1214 1226 
1215 1217 
1215 1219 
1215 1431 
1216 1218 
1216 1220 
1216 1432 
1221 1227 
1221 1228 
1222 1229 
1222 1230 
1223 1227 
1223 1230 
1224 1228 
1224 1229 
1225 1227 
1225 1229 
1226 1228 
1226 1230 
1231 1237 
1231 1238 
1232 1239 
1232 1240 
1233 1237 
1233 1240 
1234 1238 
1234 1239 
1235 1237 
1235 1239 
1236 1238 
1236 1240 
1241 1247 
1241 1248 
1242 1249 
1242 1250 
1243 1247 
1243 1250 
1243 1305 
1244 1248 
1244 1249 
1244 1306 
1245 1247 
1245 1249 
1245 1315 
1246 1248 
1246 1250 
1246 1316 
1251 1257 
1251 1258 
1252 1259 
1252 1260 
1253 1257 
1253 1260 
1254 1258 
1254 1259 
1255 1257 
1255 1259 
1256 1258 
1256 1260 
1261 1267 
1261 1268 
1262 1269 
1262 1270 
1263 1267 
1263 1270 
1264 1268 
1264 1269 
1265 1267 
1265 1269 
1265 1433 
1266 1268 
1266 1270 
1266 1434 
1271 1277 
1271 1278 
1272 1279 
1272 1280 
1273 1277 
1273 1280 
1274 1278 
1274 1279 
1275 1277 
1275 1279 
1275 1343 
1276 1278 
1276 1280 
1276 1344 
1281 1287 
1281 1288 
1282 1289 
1282 1290 
1283 1287 
1283 1290 
1284 1288 
1284 1289 
1285 1287 
1285 1289 
1285 1325 
1286 1288 
1286 1290 
1286 1326 
1291 1297 
1291 1298 
1292 1299 
1292 1300 
1293 1297 
1293 1300 
1294 1298 
1294 1299 
1295 1297 
1295 1299 
1295 1365 
1296 1298 
1296 1300 
1296 1366 
1301 1307 
1301 1308 
1302 1309 
1302 1310 
1303 1307 
1303 1310 
1304 1308 
1304 1309 
1305 1307 
1305 1309 
1306 1308 
1306 1310 
1311 1317 
1311 1318 
1312 1319 
1312 1320 
1313 1317 
1313 1320 
1314 1318 
1314 1319 
1315 1317 
1315 1319 
1316 1318 
1316 1320 
1321 1327 
1321 1328 
1322 1329 
1322 1330 
1323 1327 
1323 1330 
1324 1328 
1324 1329 
1325 1327 
1325 1329 
1326 1328 
1326 1330 
1331 1337 
1331 1338 
1332 1339 
1332 1340 
1333 1337 
1333 1340 
1334 1338 
1334 1339 
1335 1337 
1335 1339 
1336 1338 
1336 1340 
1341 1347 
1341 1348 
1342 1349 
1342 1350 
1343 1347 
1343 1350 
1344 1348 
1344 1349 
1345 1347 
1345 1349 
1345 1425 
1346 1348 
1346 1350 
1346 1426 
1351 1357 
1351 1358 
1352 1359 
1352 1360 
1353 1357 
1353 1360 
1354 1358 
1354 1359 
1355 1357 
1355 1359 
1356 1358 
1356 1360 
1361 1367 
1361 1368 
1362 1369 
1362 1370 
1363 1367 
1363 1370 
1364 1368 
1364 1369 
1365 1367 
1365 1369 
1366 1368 
1366 1370 
1371 1377 
1371 1378 
1372 1379 
1372 1380 
1373 1377 
1373 1380 
1374 1378 
1374 1379 
1375 1377 
1375 1379 
1376 1378 
1376 1380 
1381 1387 
1381 1388 
1382 1389 
1382 1390 
1383 1387 
1383 1390 
1384 1388 
1384 1389 
1385 1387 
1385 1389 
1386 1388 
1386 1390 
1391 1397 
1391 1398 
1392 1399 
1392 1400 
1393 1397 
1393 1400 
1394 1398 
1394 1399 
1395 1397 
1395 1399 
1395 1435 
1396 1398 
1396 1400 
1396 1436 
1401 1407 
1401 1408 
1402 1409 
1402 1410 
1403 1407 
1403 1410 
1404 1408 
1404 1409 
1405 1407 
1405 1409 
1406 1408 
1406 1410 
1411 1417 
1411 1418 
1412 1419 
1412 1420 
1413 1417 
1413 1420 
1414 1418 
1414 1419 
1415 1417 
1415 1419 
1416 1418 
1416 1420 
1421 1427 
1421 1428 
1422 1429 
1422 1430 
1423 1427 
1423 1430 
1424 1428 
1424 1429 
1425 1427 
1425 1429 
1426 1428 
1426 1430 
1431 1437 
1431 1438 
1432 1439 
1432 1440 
1433 1437 
1433 1440 
1434 1438 
1434 1439 
1435 1437 
1435 1439 
1436 1438 
1436 1440 
